p cnf 144 1
144 0
w 1 0.561627
w 2 1 0.523636
w 2 -1 0.864559
w 3 2 1
w 3 -2 0
w 4 3 1
w 4 -3 0
w 5 4 0
w 5 -4 1
w 6 5 0.16203
w 6 -5 0.675447
w 7 6 1
w 7 -6 0
w 8 7 1
w 8 -7 0
w 9 8 0.0967297
w 9 -8 0.419081
w 10 9 1
w 10 -9 0
w 11 10 0.416797
w 11 -10 0.260829
w 12 11 1
w 12 -11 0
w 13 1 0
w 13 -1 1
w 14 13 2 1
w 14 13 -2 1
w 14 -13 2 0
w 14 -13 -2 0
w 15 14 3 1
w 15 14 -3 0
w 15 -14 3 0
w 15 -14 -3 0
w 16 15 4 0
w 16 15 -4 1
w 16 -15 4 0
w 16 -15 -4 1
w 17 16 5 1
w 17 16 -5 0
w 17 -16 5 1
w 17 -16 -5 0
w 18 17 6 1
w 18 17 -6 0
w 18 -17 6 1
w 18 -17 -6 0
w 19 18 7 1
w 19 18 -7 0
w 19 -18 7 1
w 19 -18 -7 1
w 20 19 8 0.945388
w 20 19 -8 0.393213
w 20 -19 8 0.744991
w 20 -19 -8 0.167373
w 21 20 9 0
w 21 20 -9 1
w 21 -20 9 1
w 21 -20 -9 0
w 22 21 10 1
w 22 21 -10 1
w 22 -21 10 0
w 22 -21 -10 1
w 23 22 11 0
w 23 22 -11 0
w 23 -22 11 1
w 23 -22 -11 1
w 24 23 12 1
w 24 23 -12 0
w 24 -23 12 0
w 24 -23 -12 1
w 25 13 0.514328
w 25 -13 0.60378
w 26 25 14 1
w 26 25 -14 0
w 26 -25 14 1
w 26 -25 -14 1
w 27 26 15 1
w 27 26 -15 0
w 27 -26 15 0
w 27 -26 -15 1
w 28 27 16 0
w 28 27 -16 1
w 28 -27 16 1
w 28 -27 -16 1
w 29 28 17 1
w 29 28 -17 0
w 29 -28 17 1
w 29 -28 -17 1
w 30 29 18 0
w 30 29 -18 0
w 30 -29 18 1
w 30 -29 -18 1
w 31 30 19 0
w 31 30 -19 1
w 31 -30 19 1
w 31 -30 -19 1
w 32 31 20 0
w 32 31 -20 1
w 32 -31 20 0
w 32 -31 -20 0
w 33 32 21 0.882391
w 33 32 -21 0.13756
w 33 -32 21 0.30424
w 33 -32 -21 0.557889
w 34 33 22 0
w 34 33 -22 1
w 34 -33 22 0
w 34 -33 -22 0
w 35 34 23 0
w 35 34 -23 1
w 35 -34 23 1
w 35 -34 -23 1
w 36 35 24 1
w 36 35 -24 0
w 36 -35 24 0
w 36 -35 -24 0
w 37 25 0.212494
w 37 -25 0.810631
w 38 37 26 0
w 38 37 -26 0
w 38 -37 26 1
w 38 -37 -26 0
w 39 38 27 1
w 39 38 -27 0
w 39 -38 27 1
w 39 -38 -27 0
w 40 39 28 0.882843
w 40 39 -28 0.873307
w 40 -39 28 0.00939828
w 40 -39 -28 0.4097
w 41 40 29 0.922522
w 41 40 -29 0.529494
w 41 -40 29 0.025746
w 41 -40 -29 0.11094
w 42 41 30 0
w 42 41 -30 0
w 42 -41 30 1
w 42 -41 -30 1
w 43 42 31 0
w 43 42 -31 0
w 43 -42 31 1
w 43 -42 -31 1
w 44 43 32 1
w 44 43 -32 1
w 44 -43 32 1
w 44 -43 -32 0
w 45 44 33 0
w 45 44 -33 1
w 45 -44 33 0
w 45 -44 -33 1
w 46 45 34 0
w 46 45 -34 0
w 46 -45 34 1
w 46 -45 -34 0
w 47 46 35 0.464197
w 47 46 -35 0.711988
w 47 -46 35 0.282311
w 47 -46 -35 0.489943
w 48 47 36 0.511641
w 48 47 -36 0.927207
w 48 -47 36 0.185082
w 48 -47 -36 0.833292
w 49 37 1
w 49 -37 0
w 50 49 38 0
w 50 49 -38 0
w 50 -49 38 0
w 50 -49 -38 1
w 51 50 39 1
w 51 50 -39 0
w 51 -50 39 0
w 51 -50 -39 0
w 52 51 40 0
w 52 51 -40 0
w 52 -51 40 1
w 52 -51 -40 1
w 53 52 41 0
w 53 52 -41 1
w 53 -52 41 1
w 53 -52 -41 0
w 54 53 42 0
w 54 53 -42 1
w 54 -53 42 0
w 54 -53 -42 0
w 55 54 43 0.110061
w 55 54 -43 0.659337
w 55 -54 43 0.767376
w 55 -54 -43 0.301848
w 56 55 44 0
w 56 55 -44 0
w 56 -55 44 1
w 56 -55 -44 0
w 57 56 45 1
w 57 56 -45 1
w 57 -56 45 0
w 57 -56 -45 0
w 58 57 46 1
w 58 57 -46 0
w 58 -57 46 0
w 58 -57 -46 0
w 59 58 47 0.710009
w 59 58 -47 0.313106
w 59 -58 47 0.0398837
w 59 -58 -47 0.649346
w 60 59 48 0
w 60 59 -48 1
w 60 -59 48 0
w 60 -59 -48 1
w 61 49 0.809763
w 61 -49 0.0257109
w 62 61 50 0
w 62 61 -50 1
w 62 -61 50 0
w 62 -61 -50 0
w 63 62 51 0.10839
w 63 62 -51 0.116409
w 63 -62 51 0.504658
w 63 -62 -51 0.879252
w 64 63 52 1
w 64 63 -52 0
w 64 -63 52 0
w 64 -63 -52 1
w 65 64 53 1
w 65 64 -53 0
w 65 -64 53 0
w 65 -64 -53 1
w 66 65 54 1
w 66 65 -54 0
w 66 -65 54 1
w 66 -65 -54 1
w 67 66 55 0.341459
w 67 66 -55 0.0646771
w 67 -66 55 0.673259
w 67 -66 -55 0.36717
w 68 67 56 1
w 68 67 -56 1
w 68 -67 56 0
w 68 -67 -56 1
w 69 68 57 0
w 69 68 -57 1
w 69 -68 57 0
w 69 -68 -57 1
w 70 69 58 1
w 70 69 -58 1
w 70 -69 58 1
w 70 -69 -58 0
w 71 70 59 0
w 71 70 -59 0
w 71 -70 59 1
w 71 -70 -59 0
w 72 71 60 0
w 72 71 -60 0
w 72 -71 60 1
w 72 -71 -60 1
w 73 61 1
w 73 -61 0
w 74 73 62 0
w 74 73 -62 0
w 74 -73 62 1
w 74 -73 -62 1
w 75 74 63 1
w 75 74 -63 0
w 75 -74 63 0
w 75 -74 -63 0
w 76 75 64 0
w 76 75 -64 0
w 76 -75 64 0
w 76 -75 -64 1
w 77 76 65 0.723123
w 77 76 -65 0.891173
w 77 -76 65 0.164743
w 77 -76 -65 0.159308
w 78 77 66 1
w 78 77 -66 0
w 78 -77 66 1
w 78 -77 -66 1
w 79 78 67 0
w 79 78 -67 1
w 79 -78 67 0
w 79 -78 -67 1
w 80 79 68 0.710031
w 80 79 -68 0.429574
w 80 -79 68 0.492737
w 80 -79 -68 0.28295
w 81 80 69 0.550149
w 81 80 -69 0.605105
w 81 -80 69 0.755758
w 81 -80 -69 0.949959
w 82 81 70 0.858831
w 82 81 -70 0.196823
w 82 -81 70 0.701547
w 82 -81 -70 0.708113
w 83 82 71 0.42467
w 83 82 -71 0.599285
w 83 -82 71 0.146389
w 83 -82 -71 0.583979
w 84 83 72 0.344183
w 84 83 -72 0.519202
w 84 -83 72 0.706308
w 84 -83 -72 0.268042
w 85 73 1
w 85 -73 0
w 86 85 74 0
w 86 85 -74 0
w 86 -85 74 1
w 86 -85 -74 1
w 87 86 75 1
w 87 86 -75 1
w 87 -86 75 0
w 87 -86 -75 1
w 88 87 76 0.430155
w 88 87 -76 0.0829877
w 88 -87 76 0.841598
w 88 -87 -76 0.215041
w 89 88 77 0.0384208
w 89 88 -77 0.916588
w 89 -88 77 0.649932
w 89 -88 -77 0.0200667
w 90 89 78 0
w 90 89 -78 0
w 90 -89 78 1
w 90 -89 -78 1
w 91 90 79 0
w 91 90 -79 1
w 91 -90 79 1
w 91 -90 -79 1
w 92 91 80 1
w 92 91 -80 1
w 92 -91 80 0
w 92 -91 -80 0
w 93 92 81 1
w 93 92 -81 0
w 93 -92 81 0
w 93 -92 -81 1
w 94 93 82 0
w 94 93 -82 1
w 94 -93 82 1
w 94 -93 -82 1
w 95 94 83 1
w 95 94 -83 0
w 95 -94 83 0
w 95 -94 -83 0
w 96 95 84 0
w 96 95 -84 0
w 96 -95 84 1
w 96 -95 -84 1
w 97 85 0
w 97 -85 1
w 98 97 86 0
w 98 97 -86 1
w 98 -97 86 0
w 98 -97 -86 1
w 99 98 87 0.48118
w 99 98 -87 0.233733
w 99 -98 87 0.414919
w 99 -98 -87 0.00925543
w 100 99 88 1
w 100 99 -88 1
w 100 -99 88 1
w 100 -99 -88 0
w 101 100 89 0
w 101 100 -89 0
w 101 -100 89 0
w 101 -100 -89 1
w 102 101 90 0
w 102 101 -90 1
w 102 -101 90 0
w 102 -101 -90 0
w 103 102 91 0
w 103 102 -91 1
w 103 -102 91 0
w 103 -102 -91 0
w 104 103 92 0.905473
w 104 103 -92 0.412002
w 104 -103 92 0.311165
w 104 -103 -92 0.103903
w 105 104 93 1
w 105 104 -93 1
w 105 -104 93 0
w 105 -104 -93 1
w 106 105 94 0.998249
w 106 105 -94 0.163981
w 106 -105 94 0.265505
w 106 -105 -94 0.961757
w 107 106 95 0
w 107 106 -95 1
w 107 -106 95 0
w 107 -106 -95 0
w 108 107 96 1
w 108 107 -96 1
w 108 -107 96 0
w 108 -107 -96 1
w 109 97 0.324033
w 109 -97 0.735152
w 110 109 98 0
w 110 109 -98 0
w 110 -109 98 1
w 110 -109 -98 0
w 111 110 99 0.728967
w 111 110 -99 0.198274
w 111 -110 99 0.654624
w 111 -110 -99 0.0666031
w 112 111 100 0.456224
w 112 111 -100 0.0156968
w 112 -111 100 0.951376
w 112 -111 -100 0.620206
w 113 112 101 0
w 113 112 -101 0
w 113 -112 101 1
w 113 -112 -101 0
w 114 113 102 0.0124433
w 114 113 -102 0.895986
w 114 -113 102 0.272807
w 114 -113 -102 0.370327
w 115 114 103 1
w 115 114 -103 1
w 115 -114 103 1
w 115 -114 -103 0
w 116 115 104 0.493927
w 116 115 -104 0.819561
w 116 -115 104 0.605073
w 116 -115 -104 0.352265
w 117 116 105 0
w 117 116 -105 0
w 117 -116 105 0
w 117 -116 -105 1
w 118 117 106 0.41634
w 118 117 -106 0.455043
w 118 -117 106 0.412893
w 118 -117 -106 0.697541
w 119 118 107 0
w 119 118 -107 1
w 119 -118 107 1
w 119 -118 -107 0
w 120 119 108 0
w 120 119 -108 1
w 120 -119 108 1
w 120 -119 -108 1
w 121 109 0
w 121 -109 1
w 122 121 110 1
w 122 121 -110 0
w 122 -121 110 0
w 122 -121 -110 1
w 123 122 111 1
w 123 122 -111 1
w 123 -122 111 1
w 123 -122 -111 0
w 124 123 112 0.116046
w 124 123 -112 0.731242
w 124 -123 112 0.293743
w 124 -123 -112 0.908733
w 125 124 113 0
w 125 124 -113 0
w 125 -124 113 0
w 125 -124 -113 1
w 126 125 114 1
w 126 125 -114 0
w 126 -125 114 1
w 126 -125 -114 1
w 127 126 115 0
w 127 126 -115 0
w 127 -126 115 1
w 127 -126 -115 0
w 128 127 116 0.228522
w 128 127 -116 0.751878
w 128 -127 116 0.161712
w 128 -127 -116 0.620009
w 129 128 117 0
w 129 128 -117 1
w 129 -128 117 0
w 129 -128 -117 0
w 130 129 118 0.668764
w 130 129 -118 0.155085
w 130 -129 118 0.678409
w 130 -129 -118 0.962507
w 131 130 119 1
w 131 130 -119 1
w 131 -130 119 0
w 131 -130 -119 1
w 132 131 120 1
w 132 131 -120 0
w 132 -131 120 1
w 132 -131 -120 0
w 133 121 1
w 133 -121 0
w 134 133 122 0
w 134 133 -122 1
w 134 -133 122 0
w 134 -133 -122 0
w 135 134 123 0
w 135 134 -123 1
w 135 -134 123 1
w 135 -134 -123 0
w 136 135 124 0
w 136 135 -124 0
w 136 -135 124 1
w 136 -135 -124 0
w 137 136 125 1
w 137 136 -125 0
w 137 -136 125 1
w 137 -136 -125 0
w 138 137 126 1
w 138 137 -126 1
w 138 -137 126 0
w 138 -137 -126 1
w 139 138 127 0
w 139 138 -127 0
w 139 -138 127 0
w 139 -138 -127 1
w 140 139 128 1
w 140 139 -128 0
w 140 -139 128 0
w 140 -139 -128 0
w 141 140 129 0
w 141 140 -129 1
w 141 -140 129 0
w 141 -140 -129 1
w 142 141 130 0
w 142 141 -130 1
w 142 -141 130 1
w 142 -141 -130 0
w 143 142 131 0.569575
w 143 142 -131 0.149726
w 143 -142 131 0.501916
w 143 -142 -131 0.682781
w 144 143 132 0
w 144 143 -132 0
w 144 -143 132 0
w 144 -143 -132 1